Version identifier: 20.1.0.0 | 2020-11-10 | 9bedb6d68
CPXPARAM_Threads                                 1
CPXPARAM_TimeLimit                               7200
CPXPARAM_MIP_Tolerances_MIPGap                   0
Generic callback                                 0x60
1 of 1 MIP starts provided solutions.
MIP start 'm1' defined initial solution with objective 4415.7902.
Tried aggregator 1 time.
Reduced MIP has 1001001 rows, 1001001 columns, and 3001000 nonzeros.
Reduced MIP has 1000 binaries, 0 generals, 0 SOSs, and 0 indicators.
Presolve time = 0.93 sec. (798.63 ticks)
Probing time = 0.13 sec. (125.04 ticks)
Tried aggregator 1 time.
Reduced MIP has 1001001 rows, 1001001 columns, and 3001000 nonzeros.
Reduced MIP has 1000 binaries, 0 generals, 0 SOSs, and 0 indicators.
Presolve time = 0.96 sec. (782.41 ticks)
Probing time = 0.13 sec. (125.04 ticks)
MIP emphasis: balance optimality and feasibility.
MIP search method: dynamic search.
Parallel mode: none, using 1 thread.
Root relaxation solution time = 0.33 sec. (385.50 ticks)

        Nodes                                         Cuts/
   Node  Left     Objective  IInf  Best Integer    Best Bound    ItCnt     Gap

*     0+    0                         4415.7902     5432.0000            23.01%
      0     0     4427.0947    27     4415.7902     5432.0000        0   23.01%
      0     2     4427.0947    27     4415.7902     4427.0941        0    0.26%
Elapsed time = 1163.91 sec. (960845.83 ticks, tree = 0.01 MB, solutions = 1)
      1     3     4425.8724    36     4415.7902     4427.0939     7891    0.26%
      2     4     4425.7946    39     4415.7902     4425.8721    12766    0.23%
      3     5     4425.8483    35     4415.7902     4425.8721    12926    0.23%
      4     6     4425.8270    35     4415.7902     4425.8721    13170    0.23%
      5     7     4425.7743    25     4415.7902     4425.8721    13870    0.23%
      6     8     4425.7392    28     4415.7902     4425.8721    15116    0.23%
      7     9     4425.6373    24     4415.7902     4425.8721    15865    0.23%
      8    10     4425.5807    27     4415.7902     4425.8721    27080    0.23%
      9    11     4425.6126    31     4415.7902     4425.8721    32732    0.23%
     10    12     4425.5357    31     4415.7902     4425.8721    40588    0.23%
Elapsed time = 1943.52 sec. (1444814.86 ticks, tree = 3.23 MB, solutions = 1)
     11    13     4425.5425    12     4415.7902     4425.8721    45377    0.23%
     12    14     4425.5423     2     4415.7902     4425.8721    45434    0.23%
     13    15     4425.5421    12     4415.7902     4425.8721    45493    0.23%
     14    16     4425.5413     8     4415.7902     4425.8721    45691    0.23%
     15    17     4425.5382    14     4415.7902     4425.8721    47032    0.23%
     16    18     4425.5149    14     4415.7902     4425.8721    47422    0.23%
     17    19     4425.5364    20     4415.7902     4425.8721    48452    0.23%
     18    20     4425.4890    19     4415.7902     4425.8721    49657    0.23%
     19    21     4425.4758    14     4415.7902     4425.8721    51459    0.23%
*    20+   20                         4425.4709     4425.8721             0.01%
     20    22     4425.4750    20     4425.4709     4425.8721    52301    0.01%
Elapsed time = 2412.05 sec. (1703632.91 ticks, tree = 14.45 MB, solutions = 2)
     21    21        cutoff           4425.4709     4425.8721    52336    0.01%
     22    22     4425.4748     4     4425.4709     4425.8721    52457    0.01%
     23    23     4425.4747     6     4425.4709     4425.8721    52553    0.01%
     24    22        cutoff           4425.4709     4425.8721    52606    0.01%
     25    23     4425.4745    11     4425.4709     4425.8721    52794    0.01%
     27    23     4425.4740    11     4425.4709     4425.8721    53345    0.01%
     29    23     4425.4734    12     4425.4709     4425.8721    53852    0.01%
     31    22     4425.4732    12     4425.4709     4425.8721    53944    0.01%
     33    22     4425.4727    10     4425.4709     4425.8721    54320    0.01%
     34    23     4425.4724     9     4425.4709     4425.8721    54583    0.01%
Elapsed time = 2561.84 sec. (1761076.58 ticks, tree = 15.17 MB, solutions = 2)
     35    24     4425.4723    13     4425.4709     4425.8721    54634    0.01%
     37    24     4425.4721     6     4425.4709     4425.8721    54775    0.01%
     38    25     4425.4720     4     4425.4709     4425.8721    54821    0.01%
     39    26     4425.4718     7     4425.4709     4425.8721    55013    0.01%
     41    25     4425.4715     2     4425.4709     4425.8721    55310    0.01%
     42    25     4425.4714     4     4425.4709     4425.8721    55340    0.01%
     43    26     4425.4712     4     4425.4709     4425.8721    55410    0.01%
     44    26     4425.4710     4     4425.4709     4425.8721    55489    0.01%
     47    25     4425.8674    33     4425.4709     4425.8663    55698    0.01%
     48    26     4425.8442    34     4425.4709     4425.8663    55915    0.01%
Elapsed time = 2695.23 sec. (1787158.81 ticks, tree = 15.88 MB, solutions = 2)
     49    27     4425.8120    12     4425.4709     4425.8441    57820    0.01%
*    50+   14                         4425.5379     4425.8441             0.01%
     50    16     4425.7917    14     4425.5379     4425.8441    58735    0.01%
     51    17     4425.7777    12     4425.5379     4425.8441    60693    0.01%
     52    18     4425.7767    14     4425.5379     4425.8441    60781    0.01%
     53    19     4425.6796    17     4425.5379     4425.8441    62064    0.01%
     54    20     4425.7753    10     4425.5379     4425.8441    62132    0.01%
     55    21     4425.7690     4     4425.5379     4425.8441    62644    0.01%
     56    22     4425.7428     6     4425.5379     4425.8441    65307    0.01%
     57    23     4425.7639     8     4425.5379     4425.8441    65775    0.01%
     58    24     4425.7379    16     4425.5379     4425.8441    66512    0.01%
Elapsed time = 3206.72 sec. (2066267.62 ticks, tree = 22.80 MB, solutions = 3)
     59    25     4425.5469     4     4425.5379     4425.8441    67770    0.01%
     60    24        cutoff           4425.5379     4425.8441    67859    0.01%
     61    23        cutoff           4425.5379     4425.8441    67922    0.01%
     62    24     4425.7578    12     4425.5379     4425.8435    69171    0.01%
     63    25     4425.7456    37     4425.5379     4425.8435    69906    0.01%
     64    26     4425.6180    22     4425.5379     4425.8435    71485    0.01%
     65    27     4425.5719    22     4425.5379     4425.8435    72123    0.01%
     66    28     4425.5585    20     4425.5379     4425.8435    87119    0.01%
     67    27        cutoff           4425.5379     4425.8435   117677    0.01%
     68    26        cutoff           4425.5379     4425.8435   122222    0.01%
Elapsed time = 3515.12 sec. (2254643.79 ticks, tree = 31.87 MB, solutions = 3)
     69    27     4425.8226    45     4425.5379     4425.8269   123544    0.01%
     70    28     4425.7492    38     4425.5379     4425.8269   131998    0.01%
     71    29     4425.7144    45     4425.5379     4425.8269   132674    0.01%
     73    31     4425.6783    32     4425.5379     4425.8269   132990    0.01%
     74    32     4425.6679    28     4425.5379     4425.8269   133182    0.01%
     75    33     4425.6433    40     4425.5379     4425.8269   133491    0.01%
     76    34     4425.6209    48     4425.5379     4425.8269   133797    0.01%
     78    36     4425.5846    38     4425.5379     4425.8269   133935    0.01%
     80    38     4425.5737    40     4425.5379     4425.8269   133973    0.01%
     82    40     4425.5474    40     4425.5379     4425.8269   134403    0.01%
Elapsed time = 3908.42 sec. (2424514.80 ticks, tree = 82.35 MB, solutions = 3)
     84    38        cutoff           4425.5379     4425.8269   134431    0.01%
     85    39     4425.7556    58     4425.5379     4425.8258   135362    0.01%
     86    40     4425.7179    45     4425.5379     4425.8258   135764    0.01%
     88    42     4425.6801    32     4425.5379     4425.8258   136177    0.01%
     89    43     4425.6697    28     4425.5379     4425.8258   136279    0.01%
     90    44     4425.6454    38     4425.5379     4425.8258   136429    0.01%
     91    45     4425.6095    18     4425.5379     4425.8258   137203    0.01%
     92    46     4425.5796    31     4425.5379     4425.8258   137685    0.01%
     93    47     4425.5734    32     4425.5379     4425.8258   137730    0.01%
     94    48     4425.5633    20     4425.5379     4425.8258   137904    0.01%
Elapsed time = 4211.26 sec. (2549845.67 ticks, tree = 92.86 MB, solutions = 3)
     95    47        cutoff           4425.5379     4425.8258   138012    0.01%
     96    46        cutoff           4425.5379     4425.8258   138315    0.01%
     97    47     4425.7915    37     4425.5379     4425.8225   138976    0.01%
     98    48     4425.7681    36     4425.5379     4425.8225   139458    0.01%
    100    50     4425.7608    44     4425.5379     4425.8225   140266    0.01%
    101    51     4425.6099    12     4425.5379     4425.8225   141775    0.01%
    102    52     4425.6071     2     4425.5379     4425.8225   142101    0.01%
    103    53     4425.6052     6     4425.5379     4425.8225   142776    0.01%
    104    54     4425.6012     6     4425.5379     4425.8225   144055    0.01%
    105    55     4425.6037    26     4425.5379     4425.8225   144762    0.01%
Elapsed time = 4625.30 sec. (2794580.70 ticks, tree = 110.28 MB, solutions = 3)
    106    54        cutoff           4425.5379     4425.8225   145177    0.01%
    107    55     4425.6034    24     4425.5379     4425.8225   145302    0.01%
    108    56     4425.6030     8     4425.5379     4425.8225   145428    0.01%
    110    56        cutoff           4425.5379     4425.8225   145502    0.01%
    111    57     4425.6027     2     4425.5379     4425.8225   145604    0.01%
    112    58     4425.6020     2     4425.5379     4425.8225   145970    0.01%
    113    59     4425.5910    16     4425.5379     4425.8225   148759    0.01%
    115    61     4425.5742    16     4425.5379     4425.8225   151410    0.01%
    116    62     4425.6012     4     4425.5379     4425.8225   151802    0.01%
    117    63     4425.6005    17     4425.5379     4425.8225   151986    0.01%
Elapsed time = 4923.13 sec. (2928007.20 ticks, tree = 113.15 MB, solutions = 3)
    118    62        cutoff           4425.5379     4425.8225   152363    0.01%
    119    63     4425.5998    10     4425.5379     4425.8225   152667    0.01%
*   120+   53                         4425.5792     4425.8225             0.01%
    120    55     4425.5994     4     4425.5792     4425.8225   152753    0.01%
    122    55        cutoff           4425.5792     4425.8225   152930    0.01%
    123    56     4425.5981     2     4425.5792     4425.8225   153319    0.01%
    124    57     4425.5971     4     4425.5792     4425.8225   153551    0.01%
    125    56        cutoff           4425.5792     4425.8225   154012    0.01%
    126    57     4425.5958     4     4425.5792     4425.8225   154601    0.01%
    129    56        cutoff           4425.5792     4425.8225   154712    0.01%
    130    57     4425.5955     8     4425.5792     4425.8225   154819    0.01%
Elapsed time = 5237.95 sec. (3105466.79 ticks, tree = 111.00 MB, solutions = 4)
    132    57     4425.5944     6     4425.5792     4425.8225   155197    0.01%
    134    59     4425.5941     4     4425.5792     4425.8225   155336    0.01%
    137    60     4425.5938     4     4425.5792     4425.8225   155510    0.01%
    139    60     4425.5930     2     4425.5792     4425.8225   155873    0.01%
    140    61     4425.5924     2     4425.5792     4425.8225   156004    0.01%
    142    61     4425.5919     2     4425.5792     4425.8225   156197    0.01%
    146    61     4425.5917     4     4425.5792     4425.8225   156307    0.01%
    150    61     4425.5916     2     4425.5792     4425.8225   156377    0.01%
    155    62     4425.5912     2     4425.5792     4425.8225   156502    0.01%
    159    62     4425.5905     2     4425.5792     4425.8225   156769    0.01%
Elapsed time = 5558.52 sec. (3227831.93 ticks, tree = 158.97 MB, solutions = 4)
    160    63     4425.5903     4     4425.5792     4425.8225   156804    0.01%
    161    62        cutoff           4425.5792     4425.8225   157144    0.01%
    163    64     4425.5892     2     4425.5792     4425.8225   157472    0.01%
    167    64     4425.5890     4     4425.5792     4425.8225   157566    0.01%
    171    64     4425.5873     2     4425.5792     4425.8225   158092    0.01%
    172    65     4425.5868     4     4425.5792     4425.8225   158232    0.01%
    174    65     4425.5859     2     4425.5792     4425.8225   158555    0.01%
    177    66     4425.5857     4     4425.5792     4425.8225   158671    0.01%
    180    67     4425.5855     2     4425.5792     4425.8225   158725    0.01%
    182    67     4425.5842     2     4425.5792     4425.8225   159086    0.01%
Elapsed time = 5833.71 sec. (3337154.67 ticks, tree = 190.95 MB, solutions = 4)
    186    67     4425.5831     2     4425.5792     4425.8225   159391    0.01%
    190    67     4425.5823     4     4425.5792     4425.8225   159587    0.01%
    191    66        cutoff           4425.5792     4425.8225   160126    0.01%
    192    67     4425.5815     2     4425.5792     4425.8225   160258    0.01%
    195    67     4425.5805     4     4425.5792     4425.8225   160371    0.01%
    201    67     4425.5798     2     4425.5792     4425.8225   160479    0.01%
    206    66     4425.7899    37     4425.5792     4425.7939   161622    0.00%
    207    67     4425.7645    38     4425.5792     4425.7939   162121    0.00%
    208    68     4425.7605    46     4425.5792     4425.7939   162437    0.00%
    210    70     4425.7283    46     4425.5792     4425.7939   162616    0.00%
Elapsed time = 6200.70 sec. (3453616.72 ticks, tree = 230.57 MB, solutions = 4)
    212    72     4425.6628    36     4425.5792     4425.7939   163086    0.00%
    216    72     4425.7616    57     4425.5792     4425.7936   163860    0.00%
    217    73     4425.6749    50     4425.5792     4425.7936   164607    0.00%
    219    75     4425.6486    12     4425.5792     4425.7936   165497    0.00%
    220    76     4425.6443    17     4425.5792     4425.7936   165719    0.00%
    221    77     4425.6374     4     4425.5792     4425.7936   165982    0.00%
    222    78     4425.6294    16     4425.5792     4425.7936   166696    0.00%
    223    79     4425.6259    12     4425.5792     4425.7936   167032    0.00%
    224    80     4425.6258     8     4425.5792     4425.7936   167387    0.00%
    225    81     4425.6257     6     4425.5792     4425.7936   167771    0.00%
Elapsed time = 6665.53 sec. (3700440.25 ticks, tree = 265.06 MB, solutions = 4)
    226    82     4425.6256     2     4425.5792     4425.7936   168162    0.00%
    227    83     4425.6256     2     4425.5792     4425.7936   168283    0.00%
    228    84     4425.6255     8     4425.5792     4425.7936   168618    0.00%
    229    85     4425.6254     8     4425.5792     4425.7936   168773    0.00%
*   230+   51                         4425.6240     4425.7936             0.00%
    230    53     4425.6253     6     4425.6240     4425.7936   169135    0.00%
    231    54     4425.6252     8     4425.6240     4425.7936   169470    0.00%
    234    57     4425.6252     8     4425.6240     4425.7936   169639    0.00%
    236    59     4425.6251     6     4425.6240     4425.7936   169822    0.00%
    237    60     4425.6250     4     4425.6240     4425.7936   170144    0.00%
    239    62     4425.6250     2     4425.6240     4425.7936   170301    0.00%
Elapsed time = 7012.22 sec. (3835910.46 ticks, tree = 113.15 MB, solutions = 5)
    240    63     4425.6249     2     4425.6240     4425.7936   170579    0.00%
    241    64     4425.6246     6     4425.6240     4425.7936   171141    0.00%
    242    64     4425.6246     4     4425.6240     4425.7936   171264    0.00%
    245    65     4425.6245     4     4425.6240     4425.7936   171497    0.00%

User cuts applied:  8

Root node processing (before b&c):
  Real time             = 1163.92 sec. (960860.92 ticks)
Sequential b&c:
  Real time             = 6036.25 sec. (2962714.13 ticks)
                          ------------
Total (root+branch&cut) = 7200.17 sec. (3923575.06 ticks)
@Parameters: 
is_S_cut                                true
is_add_all_yinF                         true
is_start_value                          true
is_usercut                              true
is_visualization                        false
uc_only_rootnode                        false

data                                    Qi
fn                                      data/Qi/instance_1000_1000.csv
mode                                    ZLP
solver                                  cplex

p                                       50
r                                       2

EPS                                     1.0e-06
EPS_vio                                 1.0e-04
beta                                    0.10
gap                                     0.00
nodelimit                               Inf
timelimit                               7200.00


@PrintInfos
ItCnt: 171497
Current gap: 0.00 %
Termination Status: TIME_LIMIT
Primal Status: FEASIBLE_POINT
Solve Time: 7200.17 sec
Objective Value: 4425.624007
Number of Nodes:    246

CutInfo: [phase] num / time (sec) 
ZLP             [phase1]     0 / 0.00 [rLC]     4 / 26.62 [rUC]     2 / 11.09 [sLC]     0 / 21.42 [sUC]     6 / 1950.05 
OldSubmodular   [phase1]     0 / 0.00 [rLC]     0 / 0.00 [rUC]     0 / 0.00 [sLC]     0 / 0.00 [sUC]     0 / 0.00 
NewSubmodular   [phase1]     0 / 0.00 [rLC]     0 / 0.00 [rUC]     0 / 0.00 [sLC]     0 / 0.00 [sUC]     0 / 0.00 
PMP             [phase1]     0 / 0.00 [rLC]     5 / 20.48 [rUC]     2 / 8.31 [sLC]     4 / 18.71 [sUC]   378 / 1637.11 
Separation Round: [phase1] 0  [rLC] 5  [rUC] 2  [sLC] 4  [sUC] 378
Root Best Bound 4425.872137
Root Best Integer: 4415.790213
Best Bound: 4425.793617
Best Integer: 4425.624007

